(set-option :produce-models true); benchmark generated from python API
(set-info :status unknown)
(declare-fun l_0_0_5 () Real)
(declare-fun l_0_0_3 () Real)
(declare-fun l_0_0_4 () Real)
(declare-fun l_0_0_2 () Real)
(declare-fun l_0_0_9 () Real)
(declare-fun l_0_0_11 () Real)
(declare-fun l_0_0_8 () Real)
(declare-fun l_0_0_10 () Real)
(declare-fun l_0_0_1 () Real)
(declare-fun _a_0_ () Real)
(declare-fun l_0_0_7 () Real)
(declare-fun _a_1_ () Real)
(declare-fun _a_2_ () Real)
(declare-fun _a_3_ () Real)
(declare-fun _a_4_ () Real)
(declare-fun l_0_0_6 () Real)
(declare-fun l_0_0_12 () Real)
(declare-fun _a_5_ () Real)
(declare-fun l_0_1_7 () Real)
(declare-fun l_0_1_13 () Real)
(declare-fun l_0_1_1 () Real)
(declare-fun l_0_1_9 () Real)
(declare-fun l_0_1_8 () Real)
(declare-fun l_0_1_15 () Real)
(declare-fun l_0_1_14 () Real)
(declare-fun l_0_1_2 () Real)
(declare-fun l_0_1_3 () Real)
(declare-fun l_0_1_18 () Real)
(declare-fun l_0_1_17 () Real)
(declare-fun l_0_1_16 () Real)
(declare-fun l_0_1_12 () Real)
(declare-fun l_0_1_11 () Real)
(declare-fun l_0_1_10 () Real)
(declare-fun l_0_1_4 () Real)
(declare-fun l_0_1_6 () Real)
(declare-fun l_0_1_5 () Real)
(declare-fun l_0_2_7 () Real)
(declare-fun l_0_2_18 () Real)
(declare-fun l_0_2_17 () Real)
(declare-fun l_0_2_16 () Real)
(declare-fun l_0_2_12 () Real)
(declare-fun l_0_2_11 () Real)
(declare-fun l_0_2_10 () Real)
(declare-fun l_0_2_1 () Real)
(declare-fun l_0_2_4 () Real)
(declare-fun l_0_2_6 () Real)
(declare-fun l_0_2_5 () Real)
(declare-fun l_0_2_8 () Real)
(declare-fun l_0_2_15 () Real)
(declare-fun l_0_2_14 () Real)
(declare-fun l_0_2_9 () Real)
(declare-fun l_0_2_2 () Real)
(declare-fun l_0_2_3 () Real)
(declare-fun l_0_2_13 () Real)
(assert
 (let ((?x66 (- (- _a_0_ (* (* 12.0 l_0_0_1) l_0_0_2)) (* (* 2.0 l_0_0_10) l_0_0_8))))
 (let ((?x73 (+ (- ?x66 (* (* 2.0 l_0_0_11) l_0_0_9)) (* (* 16.0 l_0_0_2) l_0_0_4))))
 (= (+ ?x73 (* (* 16.0 l_0_0_3) l_0_0_5)) 0.0))))
(assert
 (let ((?x128 (* l_0_0_7 l_0_0_7)))
 (let ((?x124 (* l_0_0_1 l_0_0_1)))
 (let ((?x126 (* 8.0 ?x124)))
 (let ((?x127 (+ _a_1_ ?x126)))
 (= (- ?x127 ?x128) 0.0))))))
(assert
 (let ((?x141 (- (+ _a_2_ (* (* 16.0 l_0_0_1) l_0_0_4)) (* (* 6.0 l_0_0_1) l_0_0_1))))
 (= (- ?x141 (* (* 2.0 l_0_0_10) l_0_0_7)) 0.0)))
(assert
 (let ((?x165 (- (+ _a_3_ (* (* 16.0 l_0_0_1) l_0_0_2)) (* (* 2.0 l_0_0_7) l_0_0_8))))
 (= ?x165 0.0)))
(assert
 (let ((?x185 (* l_0_0_9 l_0_0_9)))
 (let ((?x183 (* l_0_0_8 l_0_0_8)))
 (let ((?x180 (* l_0_0_3 l_0_0_3)))
 (let ((?x181 (* 8.0 ?x180)))
 (let ((?x177 (* l_0_0_2 l_0_0_2)))
 (let ((?x178 (* 8.0 ?x177)))
 (let ((?x186 (- (- (+ (+ (+ _a_4_ (* l_0_0_1 l_0_0_1)) ?x178) ?x181) ?x183) ?x185)))
 (= ?x186 0.0)))))))))
(assert
 (let ((?x211 (* l_0_0_6 l_0_0_6)))
 (let ((?x212 (* 8.0 ?x211)))
 (let ((?x208 (* l_0_0_5 l_0_0_5)))
 (let ((?x209 (* 8.0 ?x208)))
 (let ((?x205 (* l_0_0_4 l_0_0_4)))
 (let ((?x206 (* 8.0 ?x205)))
 (let ((?x203 (* l_0_0_12 l_0_0_12)))
 (let ((?x201 (* l_0_0_11 l_0_0_11)))
 (let ((?x199 (* l_0_0_10 l_0_0_10)))
 (let ((?x124 (* l_0_0_1 l_0_0_1)))
 (let ((?x202 (- (- (+ (- _a_5_ (* (* 12.0 l_0_0_1) l_0_0_4)) ?x124) ?x199) ?x201)))
 (= (+ (+ (+ (- ?x202 ?x203) ?x206) ?x209) ?x212) 0.0)))))))))))))
(assert
 (let ((?x232 (* 2.0 l_0_0_1)))
 (let ((?x233 (* ?x232 l_0_0_2)))
 (= ?x233 0.0))))
(assert
 (let ((?x232 (* 2.0 l_0_0_1)))
 (let ((?x235 (* ?x232 l_0_0_4)))
 (let ((?x242 (- (- ?x235 (* (* 6.0 l_0_0_2) l_0_0_2)) (* (* 6.0 l_0_0_3) l_0_0_3))))
 (= ?x242 0.0)))))
(assert
 (let ((?x180 (* l_0_0_3 l_0_0_3)))
 (let ((?x177 (* l_0_0_2 l_0_0_2)))
 (let ((?x256 (+ ?x177 ?x180)))
 (= ?x256 0.0)))))
(assert
 (let ((?x262 (+ (* (* 2.0 l_0_0_2) l_0_0_4) (* (* 2.0 l_0_0_3) l_0_0_5))))
 (= ?x262 0.0)))
(assert
 (let ((?x211 (* l_0_0_6 l_0_0_6)))
 (let ((?x208 (* l_0_0_5 l_0_0_5)))
 (let ((?x205 (* l_0_0_4 l_0_0_4)))
 (let ((?x180 (* l_0_0_3 l_0_0_3)))
 (let ((?x177 (* l_0_0_2 l_0_0_2)))
 (let ((?x256 (+ ?x177 ?x180)))
 (= (+ (+ (+ ?x256 ?x205) ?x208) ?x211) 0.0))))))))
(assert
 (let ((?x232 (* 2.0 l_0_0_1)))
 (let ((?x233 (* ?x232 l_0_0_2)))
 (let ((?x279 (- (- ?x233 (* (* 12.0 l_0_0_2) l_0_0_4)) (* (* 12.0 l_0_0_3) l_0_0_5))))
 (= ?x279 0.0)))))
(assert
 (let ((?x232 (* 2.0 l_0_0_1)))
 (let ((?x235 (* ?x232 l_0_0_4)))
 (let ((?x298 (- (- ?x235 (* (* 6.0 l_0_0_4) l_0_0_4)) (* (* 6.0 l_0_0_5) l_0_0_5))))
 (= (- ?x298 (* (* 6.0 l_0_0_6) l_0_0_6)) 0.0)))))
(assert
 (let ((?x262 (+ (* (* 2.0 l_0_0_2) l_0_0_4) (* (* 2.0 l_0_0_3) l_0_0_5))))
 (= ?x262 0.0)))
(assert
 (let ((?x211 (* l_0_0_6 l_0_0_6)))
 (= (+ (+ (* l_0_0_4 l_0_0_4) (* l_0_0_5 l_0_0_5)) ?x211) 0.0)))
(assert
 (>= l_0_0_1 0.0))
(assert
 (>= l_0_0_3 0.0))
(assert
 (>= l_0_0_6 0.0))
(assert
 (>= l_0_0_7 0.0))
(assert
 (>= l_0_0_9 0.0))
(assert
 (>= l_0_0_12 0.0))
(assert
 (let ((?x338 (- (- (* (* (- _a_1_) l_0_1_1) l_0_1_1) (* l_0_1_13 l_0_1_13)) (* (* 5.0 l_0_1_7) l_0_1_7))))
 (= (+ ?x338 1.0) 0.0)))
(assert
 (let ((?x348 (* l_0_1_7 l_0_1_7)))
 (let ((?x370 (* l_0_1_15 l_0_1_15)))
 (let ((?x368 (* l_0_1_14 l_0_1_14)))
 (let ((?x364 (- (* (- _a_1_) (+ (* l_0_1_2 l_0_1_2) (* l_0_1_3 l_0_1_3))) (* (* (* 2.0 _a_3_) l_0_1_1) l_0_1_2))))
 (let ((?x372 (- (- (- (- ?x364 (* (* _a_4_ l_0_1_1) l_0_1_1)) ?x368) ?x370) ?x348)))
 (let ((?x378 (- (- ?x372 (* (* 5.0 l_0_1_8) l_0_1_8)) (* (* 5.0 l_0_1_9) l_0_1_9))))
 (= (- ?x378 1.0) 0.0))))))))
(assert
 (let ((?x427 (- (* (* (* (- 2.0) _a_1_) l_0_1_1) l_0_1_2) (* (* _a_3_ l_0_1_1) l_0_1_1))))
 (let ((?x434 (- (- ?x427 (* (* 2.0 l_0_1_13) l_0_1_14)) (* (* 10.0 l_0_1_7) l_0_1_8))))
 (= (+ ?x434 4.0) 0.0))))
(assert
 (let ((?x348 (* l_0_1_7 l_0_1_7)))
 (let ((?x489 (* l_0_1_18 l_0_1_18)))
 (let ((?x487 (* l_0_1_17 l_0_1_17)))
 (let ((?x485 (* l_0_1_16 l_0_1_16)))
 (let ((?x463 (* l_0_1_6 l_0_1_6)))
 (let ((?x464 (+ (+ (* l_0_1_4 l_0_1_4) (* l_0_1_5 l_0_1_5)) ?x463)))
 (let ((?x330 (- _a_1_)))
 (let ((?x472 (- (- (* ?x330 ?x464) (* (* (* 2.0 _a_2_) l_0_1_1) l_0_1_4)) (* (* _a_5_ l_0_1_1) l_0_1_1))))
 (let ((?x478 (- (+ ?x472 (* (* 12.0 l_0_1_10) l_0_1_7)) (* (* 5.0 l_0_1_10) l_0_1_10))))
 (let ((?x484 (- (- ?x478 (* (* 5.0 l_0_1_11) l_0_1_11)) (* (* 5.0 l_0_1_12) l_0_1_12))))
 (= (- (- (- (- (- ?x484 ?x485) ?x487) ?x489) ?x348) 1.0) 0.0))))))))))))
(assert
 (let ((?x348 (* l_0_1_7 l_0_1_7)))
 (let ((?x557 (* 6.0 ?x348)))
 (let ((?x551 (- (* (* (* (- 2.0) _a_1_) l_0_1_1) l_0_1_4) (* (* _a_2_ l_0_1_1) l_0_1_1))))
 (let ((?x556 (- (- ?x551 (* (* 10.0 l_0_1_10) l_0_1_7)) (* (* 2.0 l_0_1_13) l_0_1_16))))
 (= (+ (+ ?x556 ?x557) 4.0) 0.0))))))
(assert
 (let ((?x589 (+ (* (* 2.0 l_0_1_2) l_0_1_4) (* (* 2.0 l_0_1_3) l_0_1_5))))
 (let ((?x593 (- (- (* (* (- _a_0_) l_0_1_1) l_0_1_1) (* _a_1_ ?x589)) (* (* (* 2.0 _a_2_) l_0_1_1) l_0_1_2))))
 (let ((?x597 (- (- ?x593 (* (* (* 2.0 _a_3_) l_0_1_1) l_0_1_4)) (* (* 10.0 l_0_1_10) l_0_1_8))))
 (let ((?x603 (- (- ?x597 (* (* 10.0 l_0_1_11) l_0_1_9)) (* (* 2.0 l_0_1_14) l_0_1_16))))
 (let ((?x609 (+ (- ?x603 (* (* 2.0 l_0_1_15) l_0_1_17)) (* (* 12.0 l_0_1_7) l_0_1_8))))
 (= ?x609 0.0)))))))
(assert
 (let ((?x411 (* l_0_1_9 l_0_1_9)))
 (let ((?x692 (* 6.0 ?x411)))
 (let ((?x405 (* l_0_1_8 l_0_1_8)))
 (let ((?x690 (* 6.0 ?x405)))
 (let ((?x687 (* 2.0 l_0_1_10)))
 (let ((?x688 (* ?x687 l_0_1_7)))
 (let ((?x589 (+ (* (* 2.0 l_0_1_2) l_0_1_4) (* (* 2.0 l_0_1_3) l_0_1_5))))
 (let ((?x680 (- (* (* (* (- 2.0) _a_0_) l_0_1_1) l_0_1_2) (* _a_2_ (+ (* l_0_1_2 l_0_1_2) (* l_0_1_3 l_0_1_3))))))
 (let ((?x686 (- (- ?x680 (* _a_3_ ?x589)) (* (* (* 2.0 _a_4_) l_0_1_1) l_0_1_4))))
 (= (+ (+ (- ?x686 ?x688) ?x690) ?x692) 0.0)))))))))))
(assert
 (let ((?x755 (* (* 2.0 l_0_1_7) l_0_1_8)))
 (let ((?x463 (* l_0_1_6 l_0_1_6)))
 (let ((?x464 (+ (+ (* l_0_1_4 l_0_1_4) (* l_0_1_5 l_0_1_5)) ?x463)))
 (let ((?x589 (+ (* (* 2.0 l_0_1_2) l_0_1_4) (* (* 2.0 l_0_1_3) l_0_1_5))))
 (let ((?x744 (- (- (* (* (* (- 2.0) _a_0_) l_0_1_1) l_0_1_4) (* _a_2_ ?x589)) (* _a_3_ ?x464))))
 (let ((?x750 (+ (- ?x744 (* (* (* 2.0 _a_5_) l_0_1_1) l_0_1_2)) (* (* 12.0 l_0_1_10) l_0_1_8))))
 (= (- (+ ?x750 (* (* 12.0 l_0_1_11) l_0_1_9)) ?x755) 0.0))))))))
(assert
 (let ((?x820 (* (* 2.0 l_0_1_11) l_0_1_9)))
 (let ((?x687 (* 2.0 l_0_1_10)))
 (let ((?x817 (* ?x687 l_0_1_8)))
 (let ((?x589 (+ (* (* 2.0 l_0_1_2) l_0_1_4) (* (* 2.0 l_0_1_3) l_0_1_5))))
 (let ((?x816 (- (* (- _a_0_) (+ (* l_0_1_2 l_0_1_2) (* l_0_1_3 l_0_1_3))) (* _a_4_ ?x589))))
 (= (- (- ?x816 ?x817) ?x820) 0.0)))))))
(assert
 (let ((?x411 (* l_0_1_9 l_0_1_9)))
 (let ((?x405 (* l_0_1_8 l_0_1_8)))
 (let ((?x526 (* l_0_1_12 l_0_1_12)))
 (let ((?x520 (* l_0_1_11 l_0_1_11)))
 (let ((?x514 (* l_0_1_10 l_0_1_10)))
 (let ((?x463 (* l_0_1_6 l_0_1_6)))
 (let ((?x464 (+ (+ (* l_0_1_4 l_0_1_4) (* l_0_1_5 l_0_1_5)) ?x463)))
 (let ((?x589 (+ (* (* 2.0 l_0_1_2) l_0_1_4) (* (* 2.0 l_0_1_3) l_0_1_5))))
 (let ((?x579 (- _a_0_)))
 (let ((?x861 (- (- (* ?x579 ?x589) (* _a_4_ ?x464)) (* _a_5_ (+ (* l_0_1_2 l_0_1_2) (* l_0_1_3 l_0_1_3))))))
 (= (- (- (- (- (- ?x861 ?x514) ?x520) ?x526) ?x405) ?x411) 0.0))))))))))))
(assert
 (let ((?x820 (* (* 2.0 l_0_1_11) l_0_1_9)))
 (let ((?x687 (* 2.0 l_0_1_10)))
 (let ((?x817 (* ?x687 l_0_1_8)))
 (let ((?x589 (+ (* (* 2.0 l_0_1_2) l_0_1_4) (* (* 2.0 l_0_1_3) l_0_1_5))))
 (let ((?x463 (* l_0_1_6 l_0_1_6)))
 (let ((?x464 (+ (+ (* l_0_1_4 l_0_1_4) (* l_0_1_5 l_0_1_5)) ?x463)))
 (let ((?x579 (- _a_0_)))
 (= (- (- (- (* ?x579 ?x464) (* _a_5_ ?x589)) ?x817) ?x820) 0.0)))))))))
(assert
 (let ((?x687 (* 2.0 l_0_1_10)))
 (let ((?x688 (* ?x687 l_0_1_7)))
 (let ((?x463 (* l_0_1_6 l_0_1_6)))
 (let ((?x464 (+ (+ (* l_0_1_4 l_0_1_4) (* l_0_1_5 l_0_1_5)) ?x463)))
 (let ((?x953 (- _a_2_)))
 (let ((?x957 (- (- (* ?x953 ?x464) (* (* (* 2.0 _a_5_) l_0_1_1) l_0_1_4)) ?x688)))
 (let ((?x961 (+ (+ ?x957 (* 6.0 (* l_0_1_10 l_0_1_10))) (* 6.0 (* l_0_1_11 l_0_1_11)))))
 (= (+ ?x961 (* 6.0 (* l_0_1_12 l_0_1_12))) 0.0)))))))))
(assert
 (let ((?x755 (* (* 2.0 l_0_1_7) l_0_1_8)))
 (let ((?x990 (- (* (- _a_3_) (+ (* l_0_1_2 l_0_1_2) (* l_0_1_3 l_0_1_3))) (* (* (* 2.0 _a_4_) l_0_1_1) l_0_1_2))))
 (= (- ?x990 ?x755) 0.0))))
(assert
 (let ((?x411 (* l_0_1_9 l_0_1_9)))
 (let ((?x405 (* l_0_1_8 l_0_1_8)))
 (let ((?x1012 (- (* (- _a_4_) (+ (* l_0_1_2 l_0_1_2) (* l_0_1_3 l_0_1_3))) ?x405)))
 (= (- ?x1012 ?x411) 0.0)))))
(assert
 (let ((?x526 (* l_0_1_12 l_0_1_12)))
 (let ((?x520 (* l_0_1_11 l_0_1_11)))
 (let ((?x514 (* l_0_1_10 l_0_1_10)))
 (let ((?x463 (* l_0_1_6 l_0_1_6)))
 (let ((?x464 (+ (+ (* l_0_1_4 l_0_1_4) (* l_0_1_5 l_0_1_5)) ?x463)))
 (let ((?x1027 (- _a_5_)))
 (= (- (- (- (* ?x1027 ?x464) ?x514) ?x520) ?x526) 0.0))))))))
(assert
 (>= l_0_1_1 0.0))
(assert
 (>= l_0_1_3 0.0))
(assert
 (>= l_0_1_6 0.0))
(assert
 (>= l_0_1_7 0.0))
(assert
 (>= l_0_1_9 0.0))
(assert
 (>= l_0_1_12 0.0))
(assert
 (>= l_0_1_13 0.0))
(assert
 (>= l_0_1_15 0.0))
(assert
 (>= l_0_1_18 0.0))
(assert
 (let ((?x1097 (* l_0_2_7 l_0_2_7)))
 (let ((?x1095 (* l_0_2_18 l_0_2_18)))
 (let ((?x1093 (* l_0_2_17 l_0_2_17)))
 (let ((?x1091 (* l_0_2_16 l_0_2_16)))
 (let ((?x1088 (* l_0_2_12 l_0_2_12)))
 (let ((?x1089 (* 5.0 ?x1088)))
 (let ((?x1085 (* l_0_2_11 l_0_2_11)))
 (let ((?x1086 (* 5.0 ?x1085)))
 (let ((?x1082 (* l_0_2_10 l_0_2_10)))
 (let ((?x1083 (* 5.0 ?x1082)))
 (let ((?x1077 (* (/ 81.0 100.0) _a_5_)))
 (let ((?x1071 (* (/ 1.0 100.0) _a_4_)))
 (let ((?x1063 (* l_0_2_6 l_0_2_6)))
 (let ((?x1064 (+ (+ (* l_0_2_4 l_0_2_4) (* l_0_2_5 l_0_2_5)) ?x1063)))
 (let ((?x1059 (* (/ 9.0 100.0) _a_0_)))
 (let ((?x1069 (- (- ?x1059 (* _a_1_ ?x1064)) (* (* (* 2.0 _a_2_) l_0_2_1) l_0_2_4))))
 (let ((?x1081 (- (+ (- (+ ?x1069 ?x1071) (* (* _a_5_ l_0_2_1) l_0_2_1)) ?x1077) (* (* 12.0 l_0_2_10) l_0_2_7))))
 (let ((?x1098 (+ (- (- (- (+ (+ (+ ?x1081 ?x1083) ?x1086) ?x1089) ?x1091) ?x1093) ?x1095) ?x1097)))
 (= ?x1098 0.0))))))))))))))))))))
(assert
 (let ((?x1162 (* (/ 9.0 50.0) _a_4_)))
 (let ((?x1153 (+ (* (* 2.0 l_0_2_2) l_0_2_4) (* (* 2.0 l_0_2_3) l_0_2_5))))
 (let ((?x1155 (- (+ (* (* (- _a_0_) l_0_2_1) l_0_2_1) (* (/ 81.0 100.0) _a_0_)) (* _a_1_ ?x1153))))
 (let ((?x1160 (- (- ?x1155 (* (* (* 2.0 _a_2_) l_0_2_1) l_0_2_2)) (* (* (* 2.0 _a_3_) l_0_2_1) l_0_2_4))))
 (let ((?x1169 (+ (+ (+ ?x1160 ?x1162) (* (* 10.0 l_0_2_10) l_0_2_8)) (* (* 10.0 l_0_2_11) l_0_2_9))))
 (let ((?x1175 (- (- ?x1169 (* (* 2.0 l_0_2_14) l_0_2_16)) (* (* 2.0 l_0_2_15) l_0_2_17))))
 (= (- ?x1175 (* (* 12.0 l_0_2_7) l_0_2_8)) 0.0))))))))
(assert
 (let ((?x1097 (* l_0_2_7 l_0_2_7)))
 (let ((?x1247 (* 5.0 ?x1097)))
 (let ((?x1245 (* l_0_2_13 l_0_2_13)))
 (let ((?x1248 (+ (- (+ (* (* (- _a_1_) l_0_2_1) l_0_2_1) _a_1_) ?x1245) ?x1247)))
 (= ?x1248 0.0))))))
(assert
 (let ((?x1266 (* (/ 1.0 10.0) _a_3_)))
 (let ((?x1263 (* (/ 9.0 10.0) _a_2_)))
 (let ((?x1261 (- (* (* (* (- 2.0) _a_1_) l_0_2_1) l_0_2_4) (* (* _a_2_ l_0_2_1) l_0_2_1))))
 (let ((?x1272 (- (+ (+ (+ ?x1261 ?x1263) ?x1266) (* (* 10.0 l_0_2_10) l_0_2_7)) (* (* 2.0 l_0_2_13) l_0_2_16))))
 (= (- ?x1272 (* (* 6.0 l_0_2_7) l_0_2_7)) 0.0))))))
(assert
 (let ((?x1301 (* (/ 9.0 10.0) _a_3_)))
 (let ((?x1300 (- (* (* (* (- 2.0) _a_1_) l_0_2_1) l_0_2_2) (* (* _a_3_ l_0_2_1) l_0_2_1))))
 (let ((?x1307 (+ (- (+ ?x1300 ?x1301) (* (* 2.0 l_0_2_13) l_0_2_14)) (* (* 10.0 l_0_2_7) l_0_2_8))))
 (= ?x1307 0.0)))))
(assert
 (let ((?x1345 (* l_0_2_9 l_0_2_9)))
 (let ((?x1346 (* 5.0 ?x1345)))
 (let ((?x1342 (* l_0_2_8 l_0_2_8)))
 (let ((?x1343 (* 5.0 ?x1342)))
 (let ((?x1097 (* l_0_2_7 l_0_2_7)))
 (let ((?x1339 (* l_0_2_15 l_0_2_15)))
 (let ((?x1337 (* l_0_2_14 l_0_2_14)))
 (let ((?x1335 (* (/ 81.0 100.0) _a_4_)))
 (let ((?x1331 (- (* (- _a_1_) (+ (* l_0_2_2 l_0_2_2) (* l_0_2_3 l_0_2_3))) (* (* (* 2.0 _a_3_) l_0_2_1) l_0_2_2))))
 (let ((?x1340 (- (- (+ (- ?x1331 (* (* _a_4_ l_0_2_1) l_0_2_1)) ?x1335) ?x1337) ?x1339)))
 (= (+ (+ (+ ?x1340 ?x1097) ?x1343) ?x1346) 0.0))))))))))))
(assert
 (let ((?x1383 (* 2.0 l_0_2_10)))
 (let ((?x1384 (* ?x1383 l_0_2_7)))
 (let ((?x1153 (+ (* (* 2.0 l_0_2_2) l_0_2_4) (* (* 2.0 l_0_2_3) l_0_2_5))))
 (let ((?x1377 (- (* (* (* (- 2.0) _a_0_) l_0_2_1) l_0_2_2) (* _a_2_ (+ (* l_0_2_2 l_0_2_2) (* l_0_2_3 l_0_2_3))))))
 (let ((?x1382 (- (- ?x1377 (* _a_3_ ?x1153)) (* (* (* 2.0 _a_4_) l_0_2_1) l_0_2_4))))
 (let ((?x1391 (- (- (+ ?x1382 ?x1384) (* (* 6.0 l_0_2_8) l_0_2_8)) (* (* 6.0 l_0_2_9) l_0_2_9))))
 (= ?x1391 0.0))))))))
(assert
 (let ((?x1458 (* (* 2.0 l_0_2_7) l_0_2_8)))
 (let ((?x1063 (* l_0_2_6 l_0_2_6)))
 (let ((?x1064 (+ (+ (* l_0_2_4 l_0_2_4) (* l_0_2_5 l_0_2_5)) ?x1063)))
 (let ((?x1153 (+ (* (* 2.0 l_0_2_2) l_0_2_4) (* (* 2.0 l_0_2_3) l_0_2_5))))
 (let ((?x1448 (- (- (* (* (* (- 2.0) _a_0_) l_0_2_1) l_0_2_4) (* _a_2_ ?x1153)) (* _a_3_ ?x1064))))
 (let ((?x1453 (- (- ?x1448 (* (* (* 2.0 _a_5_) l_0_2_1) l_0_2_2)) (* (* 12.0 l_0_2_10) l_0_2_8))))
 (= (+ (- ?x1453 (* (* 12.0 l_0_2_11) l_0_2_9)) ?x1458) 0.0))))))))
(assert
 (let ((?x1524 (* (* 2.0 l_0_2_11) l_0_2_9)))
 (let ((?x1383 (* 2.0 l_0_2_10)))
 (let ((?x1521 (* ?x1383 l_0_2_8)))
 (let ((?x1153 (+ (* (* 2.0 l_0_2_2) l_0_2_4) (* (* 2.0 l_0_2_3) l_0_2_5))))
 (let ((?x1520 (- (* (- _a_0_) (+ (* l_0_2_2 l_0_2_2) (* l_0_2_3 l_0_2_3))) (* _a_4_ ?x1153))))
 (= (+ (+ ?x1520 ?x1521) ?x1524) 0.0)))))))
(assert
 (let ((?x1345 (* l_0_2_9 l_0_2_9)))
 (let ((?x1342 (* l_0_2_8 l_0_2_8)))
 (let ((?x1088 (* l_0_2_12 l_0_2_12)))
 (let ((?x1085 (* l_0_2_11 l_0_2_11)))
 (let ((?x1082 (* l_0_2_10 l_0_2_10)))
 (let ((?x1063 (* l_0_2_6 l_0_2_6)))
 (let ((?x1064 (+ (+ (* l_0_2_4 l_0_2_4) (* l_0_2_5 l_0_2_5)) ?x1063)))
 (let ((?x1153 (+ (* (* 2.0 l_0_2_2) l_0_2_4) (* (* 2.0 l_0_2_3) l_0_2_5))))
 (let ((?x579 (- _a_0_)))
 (let ((?x1557 (- (- (* ?x579 ?x1153) (* _a_4_ ?x1064)) (* _a_5_ (+ (* l_0_2_2 l_0_2_2) (* l_0_2_3 l_0_2_3))))))
 (= (+ (+ (+ (+ (+ ?x1557 ?x1082) ?x1085) ?x1088) ?x1342) ?x1345) 0.0))))))))))))
(assert
 (let ((?x1524 (* (* 2.0 l_0_2_11) l_0_2_9)))
 (let ((?x1383 (* 2.0 l_0_2_10)))
 (let ((?x1521 (* ?x1383 l_0_2_8)))
 (let ((?x1153 (+ (* (* 2.0 l_0_2_2) l_0_2_4) (* (* 2.0 l_0_2_3) l_0_2_5))))
 (let ((?x1063 (* l_0_2_6 l_0_2_6)))
 (let ((?x1064 (+ (+ (* l_0_2_4 l_0_2_4) (* l_0_2_5 l_0_2_5)) ?x1063)))
 (let ((?x579 (- _a_0_)))
 (= (+ (+ (- (* ?x579 ?x1064) (* _a_5_ ?x1153)) ?x1521) ?x1524) 0.0)))))))))
(assert
 (let ((?x1383 (* 2.0 l_0_2_10)))
 (let ((?x1384 (* ?x1383 l_0_2_7)))
 (let ((?x1063 (* l_0_2_6 l_0_2_6)))
 (let ((?x1064 (+ (+ (* l_0_2_4 l_0_2_4) (* l_0_2_5 l_0_2_5)) ?x1063)))
 (let ((?x953 (- _a_2_)))
 (let ((?x1633 (+ (- (* ?x953 ?x1064) (* (* (* 2.0 _a_5_) l_0_2_1) l_0_2_4)) ?x1384)))
 (let ((?x1639 (- (- ?x1633 (* (* 6.0 l_0_2_10) l_0_2_10)) (* (* 6.0 l_0_2_11) l_0_2_11))))
 (= (- ?x1639 (* (* 6.0 l_0_2_12) l_0_2_12)) 0.0)))))))))
(assert
 (let ((?x1458 (* (* 2.0 l_0_2_7) l_0_2_8)))
 (let ((?x1679 (- (* (- _a_3_) (+ (* l_0_2_2 l_0_2_2) (* l_0_2_3 l_0_2_3))) (* (* (* 2.0 _a_4_) l_0_2_1) l_0_2_2))))
 (= (+ ?x1679 ?x1458) 0.0))))
(assert
 (let ((?x1345 (* l_0_2_9 l_0_2_9)))
 (let ((?x1342 (* l_0_2_8 l_0_2_8)))
 (let ((?x1698 (+ (* (- _a_4_) (+ (* l_0_2_2 l_0_2_2) (* l_0_2_3 l_0_2_3))) ?x1342)))
 (= (+ ?x1698 ?x1345) 0.0)))))
(assert
 (let ((?x1088 (* l_0_2_12 l_0_2_12)))
 (let ((?x1085 (* l_0_2_11 l_0_2_11)))
 (let ((?x1082 (* l_0_2_10 l_0_2_10)))
 (let ((?x1063 (* l_0_2_6 l_0_2_6)))
 (let ((?x1064 (+ (+ (* l_0_2_4 l_0_2_4) (* l_0_2_5 l_0_2_5)) ?x1063)))
 (let ((?x1027 (- _a_5_)))
 (= (+ (+ (+ (* ?x1027 ?x1064) ?x1082) ?x1085) ?x1088) 0.0))))))))
(assert
 (>= l_0_2_1 0.0))
(assert
 (>= l_0_2_3 0.0))
(assert
 (>= l_0_2_6 0.0))
(assert
 (>= l_0_2_7 0.0))
(assert
 (>= l_0_2_9 0.0))
(assert
 (>= l_0_2_12 0.0))
(assert
 (>= l_0_2_13 0.0))
(assert
 (>= l_0_2_15 0.0))
(assert
 (>= l_0_2_18 0.0))
(check-sat)
(get-model)